NAME: cuum950.tsp
TYPE: TSP
COMMENT: User-generated TSP file
DIMENSION: 950
EDGE_WEIGHT_TYPE: EUC_2D
NODE_COORD_SECTION
1 599.0 185.0
2 319.0 93.0
3 168.0 937.0
4 427.0 223.0
5 830.0 79.0
6 526.0 580.0
7 795.0 2.0
8 50.0 252.0
9 449.0 643.0
10 106.0 83.0
11 186.0 2.0
12 838.0 949.0
13 462.0 364.0
14 412.0 650.0
15 876.0 942.0
16 282.0 231.0
17 891.0 683.0
18 69.0 307.0
19 706.0 404.0
20 371.0 264.0
21 266.0 900.0
22 638.0 49.0
23 160.0 561.0
24 606.0 4.0
25 926.0 555.0
26 583.0 620.0
27 943.0 124.0
28 420.0 242.0
29 243.0 548.0
30 210.0 307.0
31 772.0 855.0
32 925.0 748.0
33 861.0 646.0
34 859.0 384.0
35 560.0 685.0
36 909.0 276.0
37 395.0 306.0
38 385.0 138.0
39 29.0 930.0
40 51.0 483.0
41 641.0 784.0
42 189.0 189.0
43 935.0 929.0
44 5.0 369.0
45 366.0 745.0
46 393.0 96.0
47 507.0 588.0
48 122.0 58.0
49 624.0 819.0
50 375.0 858.0
51 439.0 288.0
52 203.0 926.0
53 835.0 101.0
54 62.0 594.0
55 752.0 563.0
56 148.0 425.0
57 493.0 565.0
58 654.0 605.0
59 720.0 881.0
60 36.0 422.0
61 170.0 223.0
62 752.0 115.0
63 780.0 944.0
64 868.0 518.0
65 869.0 460.0
66 110.0 457.0
67 25.0 840.0
68 694.0 165.0
69 837.0 741.0
70 924.0 496.0
71 573.0 857.0
72 783.0 794.0
73 171.0 871.0
74 624.0 828.0
75 336.0 863.0
76 642.0 779.0
77 842.0 53.0
78 632.0 861.0
79 792.0 805.0
80 596.0 253.0
81 141.0 96.0
82 787.0 502.0
83 890.0 636.0
84 471.0 943.0
85 797.0 103.0
86 533.0 799.0
87 931.0 533.0
88 419.0 245.0
89 661.0 532.0
90 490.0 402.0
91 891.0 276.0
92 713.0 20.0
93 252.0 69.0
94 306.0 701.0
95 353.0 629.0
96 828.0 594.0
97 890.0 279.0
98 603.0 304.0
99 832.0 933.0
100 672.0 504.0
101 497.0 123.0
102 323.0 870.0
103 157.0 514.0
104 609.0 923.0
105 600.0 780.0
106 408.0 42.0
107 422.0 389.0
108 444.0 457.0
109 521.0 3.0
110 560.0 835.0
111 578.0 693.0
112 243.0 943.0
113 62.0 910.0
114 351.0 628.0
115 108.0 584.0
116 38.0 384.0
117 568.0 866.0
118 843.0 492.0
119 585.0 870.0
120 838.0 443.0
121 256.0 248.0
122 306.0 777.0
123 524.0 847.0
124 684.0 663.0
125 468.0 221.0
126 436.0 478.0
127 943.0 377.0
128 690.0 520.0
129 897.0 272.0
130 946.0 875.0
131 253.0 124.0
132 767.0 312.0
133 229.0 295.0
134 879.0 708.0
135 564.0 547.0
136 599.0 848.0
137 321.0 349.0
138 751.0 15.0
139 562.0 168.0
140 147.0 788.0
141 385.0 477.0
142 822.0 642.0
143 282.0 276.0
144 461.0 542.0
145 42.0 260.0
146 598.0 584.0
147 774.0 893.0
148 68.0 280.0
149 198.0 7.0
150 181.0 614.0
151 81.0 493.0
152 751.0 950.0
153 411.0 748.0
154 146.0 580.0
155 681.0 138.0
156 102.0 372.0
157 487.0 181.0
158 409.0 224.0
159 907.0 587.0
160 729.0 74.0
161 564.0 725.0
162 140.0 21.0
163 496.0 891.0
164 168.0 109.0
165 523.0 255.0
166 23.0 241.0
167 531.0 900.0
168 368.0 349.0
169 904.0 441.0
170 120.0 340.0
171 710.0 34.0
172 782.0 911.0
173 776.0 521.0
174 366.0 598.0
175 229.0 194.0
176 15.0 113.0
177 314.0 731.0
178 186.0 829.0
179 683.0 22.0
180 521.0 717.0
181 307.0 732.0
182 813.0 811.0
183 132.0 571.0
184 289.0 865.0
185 36.0 917.0
186 930.0 822.0
187 484.0 881.0
188 550.0 45.0
189 576.0 822.0
190 16.0 205.0
191 52.0 510.0
192 777.0 878.0
193 856.0 749.0
194 585.0 145.0
195 436.0 396.0
196 642.0 534.0
197 404.0 216.0
198 780.0 380.0
199 197.0 155.0
200 702.0 119.0
201 211.0 700.0
202 129.0 634.0
203 880.0 869.0
204 723.0 600.0
205 535.0 684.0
206 783.0 453.0
207 850.0 641.0
208 216.0 30.0
209 155.0 554.0
210 804.0 377.0
211 256.0 446.0
212 293.0 803.0
213 116.0 311.0
214 458.0 686.0
215 651.0 807.0
216 255.0 264.0
217 864.0 669.0
218 53.0 686.0
219 126.0 711.0
220 690.0 769.0
221 374.0 919.0
222 558.0 423.0
223 185.0 915.0
224 551.0 950.0
225 752.0 571.0
226 411.0 557.0
227 67.0 466.0
228 23.0 326.0
229 917.0 666.0
230 6.0 442.0
231 340.0 43.0
232 225.0 188.0
233 537.0 17.0
234 81.0 592.0
235 192.0 587.0
236 424.0 844.0
237 917.0 300.0
238 329.0 776.0
239 462.0 787.0
240 343.0 841.0
241 194.0 677.0
242 787.0 378.0
243 667.0 355.0
244 428.0 338.0
245 877.0 185.0
246 456.0 899.0
247 364.0 21.0
248 169.0 483.0
249 787.0 895.0
250 617.0 345.0
251 645.0 108.0
252 224.0 888.0
253 401.0 757.0
254 778.0 876.0
255 9.0 53.0
256 308.0 761.0
257 506.0 614.0
258 724.0 334.0
259 233.0 213.0
260 611.0 286.0
261 757.0 701.0
262 16.0 312.0
263 15.0 763.0
264 122.0 735.0
265 322.0 200.0
266 411.0 453.0
267 748.0 505.0
268 466.0 505.0
269 900.0 635.0
270 404.0 95.0
271 517.0 536.0
272 815.0 554.0
273 428.0 779.0
274 11.0 555.0
275 656.0 450.0
276 84.0 473.0
277 497.0 150.0
278 818.0 351.0
279 883.0 694.0
280 21.0 715.0
281 619.0 930.0
282 526.0 548.0
283 930.0 609.0
284 677.0 377.0
285 790.0 426.0
286 580.0 109.0
287 131.0 359.0
288 559.0 876.0
289 605.0 128.0
290 815.0 73.0
291 239.0 632.0
292 238.0 604.0
293 858.0 437.0
294 380.0 768.0
295 296.0 263.0
296 110.0 143.0
297 437.0 817.0
298 404.0 375.0
299 262.0 320.0
300 265.0 764.0
301 585.0 636.0
302 360.0 30.0
303 920.0 321.0
304 718.0 879.0
305 369.0 245.0
306 192.0 235.0
307 497.0 261.0
308 330.0 737.0
309 893.0 76.0
310 569.0 910.0
311 486.0 121.0
312 526.0 694.0
313 793.0 305.0
314 760.0 763.0
315 193.0 526.0
316 830.0 192.0
317 810.0 706.0
318 463.0 73.0
319 945.0 946.0
320 140.0 218.0
321 173.0 439.0
322 134.0 143.0
323 865.0 314.0
324 3.0 432.0
325 806.0 675.0
326 915.0 755.0
327 89.0 236.0
328 804.0 63.0
329 83.0 192.0
330 890.0 427.0
331 375.0 911.0
332 690.0 122.0
333 618.0 810.0
334 74.0 511.0
335 679.0 694.0
336 651.0 878.0
337 861.0 474.0
338 872.0 888.0
339 196.0 270.0
340 840.0 409.0
341 760.0 745.0
342 927.0 408.0
343 157.0 414.0
344 278.0 153.0
345 28.0 762.0
346 791.0 334.0
347 925.0 791.0
348 90.0 918.0
349 123.0 114.0
350 107.0 182.0
351 163.0 135.0
352 868.0 266.0
353 3.0 358.0
354 682.0 385.0
355 396.0 91.0
356 577.0 705.0
357 423.0 189.0
358 920.0 291.0
359 63.0 109.0
360 670.0 425.0
361 630.0 120.0
362 330.0 311.0
363 469.0 811.0
364 118.0 569.0
365 841.0 409.0
366 607.0 44.0
367 110.0 540.0
368 196.0 709.0
369 405.0 160.0
370 548.0 467.0
371 66.0 913.0
372 131.0 192.0
373 338.0 496.0
374 627.0 536.0
375 432.0 9.0
376 179.0 109.0
377 111.0 237.0
378 826.0 566.0
379 313.0 903.0
380 390.0 712.0
381 599.0 901.0
382 781.0 885.0
383 940.0 640.0
384 872.0 395.0
385 172.0 316.0
386 156.0 82.0
387 634.0 216.0
388 278.0 909.0
389 500.0 829.0
390 543.0 464.0
391 732.0 764.0
392 509.0 839.0
393 399.0 519.0
394 770.0 907.0
395 42.0 728.0
396 526.0 732.0
397 686.0 321.0
398 777.0 803.0
399 878.0 165.0
400 878.0 718.0
401 52.0 10.0
402 883.0 9.0
403 59.0 368.0
404 669.0 945.0
405 624.0 885.0
406 122.0 159.0
407 858.0 834.0
408 714.0 449.0
409 171.0 877.0
410 565.0 101.0
411 747.0 507.0
412 922.0 810.0
413 862.0 432.0
414 303.0 452.0
415 280.0 6.0
416 291.0 694.0
417 623.0 286.0
418 346.0 327.0
419 908.0 749.0
420 668.0 690.0
421 663.0 863.0
422 866.0 695.0
423 495.0 858.0
424 753.0 117.0
425 66.0 885.0
426 703.0 476.0
427 950.0 941.0
428 879.0 673.0
429 339.0 755.0
430 472.0 97.0
431 536.0 750.0
432 284.0 108.0
433 141.0 374.0
434 872.0 183.0
435 827.0 637.0
436 250.0 141.0
437 296.0 907.0
438 661.0 431.0
439 751.0 613.0
440 408.0 290.0
441 643.0 589.0
442 233.0 413.0
443 93.0 714.0
444 536.0 60.0
445 798.0 38.0
446 395.0 872.0
447 686.0 55.0
448 796.0 258.0
449 705.0 382.0
450 337.0 407.0
451 884.0 281.0
452 91.0 117.0
453 899.0 863.0
454 178.0 459.0
455 896.0 460.0
456 814.0 418.0
457 836.0 74.0
458 33.0 541.0
459 482.0 340.0
460 281.0 67.0
461 305.0 400.0
462 262.0 21.0
463 608.0 811.0
464 138.0 455.0
465 43.0 375.0
466 233.0 587.0
467 358.0 19.0
468 464.0 653.0
469 241.0 575.0
470 873.0 553.0
471 127.0 138.0
472 839.0 842.0
473 722.0 901.0
474 15.0 734.0
475 852.0 79.0
476 394.0 729.0
477 59.0 620.0
478 479.0 590.0
479 338.0 337.0
480 894.0 272.0
481 540.0 421.0
482 555.0 610.0
483 749.0 98.0
484 541.0 716.0
485 239.0 560.0
486 199.0 39.0
487 471.0 399.0
488 820.0 222.0
489 70.0 850.0
490 784.0 290.0
491 567.0 903.0
492 56.0 852.0
493 769.0 558.0
494 859.0 546.0
495 454.0 876.0
496 188.0 385.0
497 280.0 417.0
498 641.0 404.0
499 555.0 92.0
500 788.0 44.0
501 57.0 800.0
502 589.0 228.0
503 946.0 646.0
504 372.0 695.0
505 695.0 105.0
506 871.0 844.0
507 663.0 180.0
508 906.0 585.0
509 66.0 509.0
510 183.0 655.0
511 131.0 805.0
512 141.0 158.0
513 119.0 531.0
514 493.0 526.0
515 382.0 765.0
516 619.0 352.0
517 868.0 919.0
518 878.0 495.0
519 192.0 780.0
520 139.0 518.0
521 186.0 655.0
522 371.0 113.0
523 949.0 492.0
524 343.0 376.0
525 259.0 299.0
526 862.0 484.0
527 338.0 913.0
528 689.0 652.0
529 353.0 93.0
530 415.0 780.0
531 12.0 542.0
532 918.0 666.0
533 24.0 49.0
534 145.0 231.0
535 566.0 804.0
536 447.0 937.0
537 101.0 116.0
538 627.0 729.0
539 768.0 215.0
540 261.0 674.0
541 633.0 884.0
542 688.0 823.0
543 213.0 634.0
544 97.0 23.0
545 366.0 103.0
546 3.0 20.0
547 740.0 807.0
548 164.0 219.0
549 89.0 599.0
550 464.0 191.0
551 37.0 78.0
552 218.0 914.0
553 474.0 115.0
554 835.0 295.0
555 223.0 288.0
556 392.0 193.0
557 860.0 263.0
558 15.0 862.0
559 333.0 507.0
560 355.0 314.0
561 552.0 779.0
562 494.0 899.0
563 579.0 228.0
564 945.0 445.0
565 435.0 275.0
566 409.0 848.0
567 879.0 813.0
568 849.0 524.0
569 611.0 575.0
570 394.0 94.0
571 694.0 313.0
572 787.0 397.0
573 641.0 581.0
574 304.0 203.0
575 651.0 508.0
576 596.0 833.0
577 531.0 113.0
578 501.0 353.0
579 361.0 845.0
580 386.0 860.0
581 428.0 162.0
582 348.0 74.0
583 171.0 791.0
584 550.0 592.0
585 228.0 510.0
586 300.0 940.0
587 889.0 189.0
588 135.0 902.0
589 901.0 920.0
590 32.0 735.0
591 177.0 781.0
592 444.0 779.0
593 837.0 555.0
594 411.0 315.0
595 697.0 869.0
596 581.0 285.0
597 308.0 795.0
598 857.0 418.0
599 431.0 466.0
600 571.0 409.0
601 67.0 43.0
602 665.0 805.0
603 478.0 744.0
604 212.0 667.0
605 474.0 860.0
606 317.0 52.0
607 750.0 580.0
608 640.0 544.0
609 711.0 20.0
610 447.0 945.0
611 820.0 69.0
612 6.0 185.0
613 768.0 82.0
614 247.0 415.0
615 197.0 808.0
616 625.0 700.0
617 298.0 592.0
618 582.0 779.0
619 285.0 245.0
620 333.0 881.0
621 875.0 597.0
622 360.0 152.0
623 942.0 443.0
624 843.0 525.0
625 888.0 450.0
626 230.0 241.0
627 92.0 847.0
628 166.0 735.0
629 425.0 735.0
630 510.0 542.0
631 468.0 628.0
632 33.0 14.0
633 925.0 375.0
634 355.0 84.0
635 423.0 616.0
636 796.0 470.0
637 172.0 627.0
638 608.0 839.0
639 632.0 926.0
640 896.0 368.0
641 715.0 925.0
642 446.0 618.0
643 801.0 788.0
644 350.0 217.0
645 609.0 937.0
646 513.0 659.0
647 609.0 338.0
648 78.0 893.0
649 882.0 68.0
650 149.0 168.0
651 270.0 33.0
652 131.0 31.0
653 683.0 59.0
654 845.0 179.0
655 659.0 653.0
656 644.0 705.0
657 943.0 389.0
658 30.0 367.0
659 758.0 650.0
660 205.0 852.0
661 103.0 430.0
662 931.0 361.0
663 288.0 261.0
664 73.0 688.0
665 772.0 644.0
666 674.0 930.0
667 812.0 805.0
668 532.0 404.0
669 852.0 148.0
670 193.0 877.0
671 892.0 727.0
672 745.0 352.0
673 592.0 843.0
674 751.0 573.0
675 349.0 762.0
676 805.0 142.0
677 712.0 228.0
678 825.0 351.0
679 369.0 493.0
680 226.0 623.0
681 890.0 233.0
682 111.0 72.0
683 177.0 239.0
684 875.0 294.0
685 852.0 559.0
686 548.0 765.0
687 130.0 840.0
688 349.0 311.0
689 282.0 242.0
690 488.0 135.0
691 407.0 466.0
692 166.0 937.0
693 842.0 630.0
694 184.0 515.0
695 562.0 140.0
696 43.0 78.0
697 722.0 622.0
698 866.0 198.0
699 111.0 195.0
700 748.0 552.0
701 737.0 58.0
702 572.0 887.0
703 851.0 932.0
704 935.0 129.0
705 892.0 108.0
706 744.0 404.0
707 914.0 172.0
708 693.0 562.0
709 874.0 92.0
710 705.0 539.0
711 733.0 690.0
712 795.0 614.0
713 612.0 849.0
714 702.0 100.0
715 372.0 540.0
716 131.0 638.0
717 771.0 536.0
718 456.0 141.0
719 2.0 516.0
720 157.0 510.0
721 296.0 622.0
722 367.0 777.0
723 447.0 469.0
724 51.0 784.0
725 238.0 631.0
726 296.0 52.0
727 56.0 151.0
728 100.0 439.0
729 106.0 337.0
730 942.0 345.0
731 844.0 554.0
732 92.0 910.0
733 363.0 888.0
734 737.0 323.0
735 900.0 35.0
736 410.0 121.0
737 247.0 504.0
738 761.0 114.0
739 553.0 104.0
740 466.0 133.0
741 65.0 21.0
742 119.0 590.0
743 869.0 677.0
744 607.0 720.0
745 710.0 316.0
746 279.0 243.0
747 228.0 513.0
748 98.0 282.0
749 683.0 464.0
750 425.0 351.0
751 10.0 814.0
752 113.0 79.0
753 118.0 26.0
754 475.0 130.0
755 166.0 828.0
756 687.0 389.0
757 617.0 475.0
758 605.0 134.0
759 422.0 659.0
760 897.0 729.0
761 663.0 901.0
762 449.0 805.0
763 876.0 86.0
764 601.0 216.0
765 333.0 888.0
766 53.0 825.0
767 719.0 300.0
768 163.0 182.0
769 67.0 812.0
770 631.0 89.0
771 712.0 511.0
772 423.0 452.0
773 13.0 652.0
774 466.0 258.0
775 612.0 735.0
776 409.0 317.0
777 536.0 402.0
778 940.0 730.0
779 47.0 324.0
780 363.0 414.0
781 202.0 46.0
782 5.0 736.0
783 723.0 323.0
784 401.0 741.0
785 679.0 91.0
786 263.0 260.0
787 230.0 810.0
788 335.0 263.0
789 82.0 600.0
790 837.0 928.0
791 818.0 681.0
792 704.0 161.0
793 531.0 716.0
794 599.0 345.0
795 89.0 41.0
796 212.0 412.0
797 432.0 306.0
798 422.0 261.0
799 255.0 496.0
800 513.0 568.0
801 913.0 114.0
802 546.0 445.0
803 698.0 934.0
804 129.0 81.0
805 102.0 57.0
806 788.0 382.0
807 323.0 609.0
808 687.0 627.0
809 50.0 622.0
810 247.0 876.0
811 863.0 501.0
812 554.0 545.0
813 142.0 268.0
814 703.0 389.0
815 295.0 26.0
816 769.0 292.0
817 95.0 206.0
818 887.0 710.0
819 594.0 914.0
820 676.0 366.0
821 656.0 270.0
822 863.0 548.0
823 869.0 339.0
824 230.0 293.0
825 495.0 889.0
826 388.0 416.0
827 920.0 177.0
828 771.0 65.0
829 897.0 473.0
830 261.0 274.0
831 110.0 554.0
832 298.0 368.0
833 552.0 165.0
834 542.0 950.0
835 186.0 533.0
836 15.0 470.0
837 767.0 5.0
838 733.0 848.0
839 873.0 801.0
840 516.0 911.0
841 543.0 896.0
842 600.0 85.0
843 664.0 356.0
844 201.0 246.0
845 520.0 333.0
846 798.0 138.0
847 115.0 214.0
848 335.0 743.0
849 329.0 518.0
850 408.0 452.0
851 725.0 28.0
852 98.0 223.0
853 738.0 85.0
854 637.0 142.0
855 13.0 291.0
856 94.0 505.0
857 223.0 201.0
858 252.0 311.0
859 756.0 129.0
860 656.0 633.0
861 193.0 323.0
862 398.0 223.0
863 625.0 466.0
864 413.0 775.0
865 606.0 634.0
866 295.0 756.0
867 466.0 153.0
868 831.0 7.0
869 856.0 41.0
870 650.0 670.0
871 690.0 126.0
872 445.0 496.0
873 812.0 188.0
874 126.0 510.0
875 559.0 136.0
876 448.0 214.0
877 737.0 936.0
878 463.0 293.0
879 596.0 581.0
880 727.0 341.0
881 469.0 756.0
882 809.0 947.0
883 446.0 422.0
884 177.0 250.0
885 417.0 235.0
886 250.0 12.0
887 753.0 340.0
888 858.0 676.0
889 448.0 110.0
890 932.0 54.0
891 45.0 484.0
892 845.0 176.0
893 771.0 342.0
894 242.0 844.0
895 543.0 191.0
896 697.0 921.0
897 731.0 895.0
898 899.0 334.0
899 283.0 826.0
900 263.0 919.0
901 807.0 392.0
902 945.0 765.0
903 789.0 253.0
904 491.0 36.0
905 831.0 389.0
906 739.0 931.0
907 950.0 308.0
908 456.0 267.0
909 944.0 187.0
910 178.0 346.0
911 40.0 812.0
912 664.0 26.0
913 561.0 838.0
914 182.0 461.0
915 698.0 159.0
916 156.0 84.0
917 20.0 433.0
918 52.0 670.0
919 524.0 830.0
920 36.0 763.0
921 361.0 399.0
922 441.0 909.0
923 236.0 855.0
924 416.0 180.0
925 71.0 714.0
926 84.0 648.0
927 247.0 410.0
928 150.0 376.0
929 712.0 708.0
930 136.0 674.0
931 290.0 910.0
932 747.0 488.0
933 731.0 892.0
934 754.0 687.0
935 681.0 268.0
936 708.0 282.0
937 717.0 262.0
938 797.0 445.0
939 627.0 21.0
940 362.0 825.0
941 247.0 833.0
942 478.0 763.0
943 796.0 904.0
944 628.0 494.0
945 199.0 928.0
946 629.0 433.0
947 861.0 699.0
948 32.0 604.0
949 846.0 201.0
950 137.0 760.0
EOF





